\ Model vert
\ LP format - for model browsing. Use MPS format to capture full model detail.
Minimize
  3034.86820152163 S_coef + 19.8223709143419 Constant + [ 232324 S_coef ^2
   ] / 2 
Subject To
Bounds
 -1000 <= S_coef <= 1000
 Constant = 1
End
